NAME : census.pruned_global_16.tour
TYPE : TOUR
DIMENSION : 68
TOUR_SECTION
1
2
3
8
9
32
34
37
47
49
52
63
64
65
4
18
19
22
23
24
26
30
36
5
16
38
44
6
14
17
25
27
33
39
40
50
54
66
67
68
7
15
31
35
42
46
60
62
10
12
41
56
59
61
11
13
20
21
28
29
43
45
48
51
53
55
57
58
-1
EOF
